33D32945 STP File, STP Format Version 1.0

SECTION Comment
Name "i640-132-PCST"
Creator "Indaco Biazzo" 
Remark "derived from Incidence graph by Cees Duin"
END

SECTION Graph
Nodes 640
Edges 1280
E 1 4 308.000000
E 1 28 206.000000
E 1 89 199.000000
E 1 113 210.000000
E 1 171 197.000000
E 1 174 202.000000
E 1 233 203.000000
E 1 245 202.000000
E 1 296 205.000000
E 1 561 197.000000
E 2 150 197.000000
E 2 385 205.000000
E 2 518 203.000000
E 2 618 204.000000
E 3 36 196.000000
E 3 118 204.000000
E 3 447 197.000000
E 3 605 200.000000
E 5 87 199.000000
E 5 200 204.000000
E 6 84 196.000000
E 6 93 200.000000
E 6 171 196.000000
E 6 234 203.000000
E 7 79 201.000000
E 7 159 196.000000
E 7 208 200.000000
E 8 27 191.000000
E 8 558 218.000000
E 9 198 205.000000
E 9 444 208.000000
E 9 504 206.000000
E 10 30 197.000000
E 10 178 200.000000
E 10 473 202.000000
E 10 618 200.000000
E 11 181 194.000000
E 11 437 203.000000
E 12 75 196.000000
E 12 222 200.000000
E 12 481 202.000000
E 12 608 201.000000
E 13 224 192.000000
E 13 239 204.000000
E 14 384 203.000000
E 15 100 203.000000
E 15 186 199.000000
E 15 616 195.000000
E 16 545 192.000000
E 16 627 198.000000
E 17 97 204.000000
E 17 185 200.000000
E 17 263 210.000000
E 17 385 208.000000
E 17 600 189.000000
E 18 31 190.000000
E 18 51 202.000000
E 18 287 206.000000
E 18 334 208.000000
E 18 359 199.000000
E 18 369 192.000000
E 18 468 205.000000
E 18 500 198.000000
E 19 153 200.000000
E 19 289 203.000000
E 19 409 197.000000
E 19 552 198.000000
E 20 59 197.000000
E 20 230 211.000000
E 20 312 200.000000
E 20 494 198.000000
E 20 552 188.000000
E 21 192 191.000000
E 21 346 192.000000
E 22 167 204.000000
E 22 453 205.000000
E 22 495 192.000000
E 22 576 202.000000
E 23 66 197.000000
E 23 334 204.000000
E 24 177 205.000000
E 24 513 203.000000
E 24 552 201.000000
E 25 181 207.000000
E 25 188 205.000000
E 25 432 198.000000
E 25 483 199.000000
E 26 287 107.000000
E 26 384 96.000000
E 27 79 98.000000
E 27 86 102.000000
E 27 145 106.000000
E 27 153 102.000000
E 27 166 103.000000
E 27 500 103.000000
E 28 46 92.000000
E 28 189 106.000000
E 28 213 96.000000
E 28 326 101.000000
E 28 547 108.000000
E 29 196 92.000000
E 29 361 97.000000
E 29 555 102.000000
E 29 587 105.000000
E 30 237 97.000000
E 30 241 96.000000
E 30 433 99.000000
E 31 235 102.000000
E 31 509 107.000000
E 32 67 101.000000
E 32 120 97.000000
E 32 191 83.000000
E 32 193 100.000000
E 32 224 103.000000
E 32 395 95.000000
E 32 525 97.000000
E 32 557 105.000000
E 33 139 100.000000
E 34 142 104.000000
E 34 296 106.000000
E 34 448 92.000000
E 34 634 96.000000
E 35 209 95.000000
E 35 314 107.000000
E 35 362 90.000000
E 35 452 95.000000
E 35 554 100.000000
E 36 45 108.000000
E 36 244 98.000000
E 36 279 104.000000
E 37 44 102.000000
E 37 136 92.000000
E 37 329 101.000000
E 37 580 100.000000
E 37 637 89.000000
E 38 173 102.000000
E 38 286 99.000000
E 38 408 93.000000
E 38 465 104.000000
E 38 533 104.000000
E 38 568 93.000000
E 39 60 110.000000
E 39 66 91.000000
E 39 111 104.000000
E 39 134 90.000000
E 39 271 93.000000
E 39 282 102.000000
E 39 404 105.000000
E 39 453 102.000000
E 39 476 92.000000
E 39 537 96.000000
E 40 186 95.000000
E 40 449 102.000000
E 40 543 95.000000
E 40 572 88.000000
E 41 151 105.000000
E 41 173 100.000000
E 41 196 103.000000
E 41 312 93.000000
E 41 332 96.000000
E 41 385 103.000000
E 41 410 99.000000
E 42 55 104.000000
E 42 233 95.000000
E 42 324 100.000000
E 42 474 103.000000
E 42 622 99.000000
E 43 177 100.000000
E 43 220 98.000000
E 43 226 101.000000
E 43 231 100.000000
E 43 278 103.000000
E 43 322 101.000000
E 43 366 90.000000
E 43 595 100.000000
E 44 284 100.000000
E 44 413 98.000000
E 45 78 93.000000
E 45 159 103.000000
E 46 128 101.000000
E 46 445 105.000000
E 46 517 99.000000
E 47 340 104.000000
E 47 418 95.000000
E 47 421 108.000000
E 47 613 93.000000
E 48 109 101.000000
E 48 370 95.000000
E 48 490 95.000000
E 49 389 88.000000
E 49 404 95.000000
E 49 599 111.000000
E 49 616 96.000000
E 50 189 97.000000
E 50 274 97.000000
E 50 290 104.000000
E 50 309 97.000000
E 50 363 97.000000
E 51 530 106.000000
E 51 571 96.000000
E 52 122 99.000000
E 52 352 100.000000
E 52 354 105.000000
E 52 379 103.000000
E 52 571 103.000000
E 52 632 103.000000
E 53 55 88.000000
E 53 74 102.000000
E 53 333 99.000000
E 53 533 96.000000
E 53 630 96.000000
E 54 109 100.000000
E 54 454 96.000000
E 54 585 101.000000
E 55 311 100.000000
E 55 325 101.000000
E 56 155 106.000000
E 57 321 103.000000
E 57 567 93.000000
E 58 333 103.000000
E 58 361 104.000000
E 59 120 99.000000
E 59 126 104.000000
E 59 301 107.000000
E 59 333 92.000000
E 59 525 96.000000
E 59 583 103.000000
E 60 120 100.000000
E 60 389 90.000000
E 60 475 96.000000
E 61 137 96.000000
E 61 320 101.000000
E 61 632 100.000000
E 62 210 106.000000
E 62 635 98.000000
E 63 64 95.000000
E 63 91 87.000000
E 63 211 101.000000
E 63 218 105.000000
E 63 269 98.000000
E 64 379 99.000000
E 64 453 98.000000
E 64 632 95.000000
E 64 635 99.000000
E 65 237 98.000000
E 65 337 97.000000
E 65 355 101.000000
E 65 436 109.000000
E 66 151 111.000000
E 66 164 98.000000
E 66 226 104.000000
E 66 250 99.000000
E 66 421 97.000000
E 66 450 99.000000
E 66 461 102.000000
E 66 574 95.000000
E 67 207 104.000000
E 67 237 99.000000
E 67 543 99.000000
E 68 141 104.000000
E 68 157 94.000000
E 68 269 100.000000
E 68 416 95.000000
E 69 300 87.000000
E 69 394 105.000000
E 69 496 101.000000
E 69 602 104.000000
E 70 97 103.000000
E 70 173 99.000000
E 71 248 102.000000
E 71 258 101.000000
E 71 282 106.000000
E 71 500 96.000000
E 71 512 98.000000
E 72 106 95.000000
E 72 261 98.000000
E 72 449 105.000000
E 73 251 104.000000
E 73 550 98.000000
E 74 124 89.000000
E 74 563 98.000000
E 74 565 105.000000
E 76 136 107.000000
E 76 499 104.000000
E 76 611 105.000000
E 77 195 99.000000
E 77 496 102.000000
E 78 237 101.000000
E 78 238 109.000000
E 79 316 94.000000
E 79 623 107.000000
E 80 237 101.000000
E 81 143 99.000000
E 81 359 94.000000
E 81 475 92.000000
E 81 567 98.000000
E 81 584 97.000000
E 81 631 92.000000
E 82 103 104.000000
E 82 314 103.000000
E 82 400 98.000000
E 82 433 87.000000
E 83 402 103.000000
E 83 557 95.000000
E 84 223 97.000000
E 84 377 89.000000
E 84 404 98.000000
E 84 422 97.000000
E 85 98 105.000000
E 85 434 95.000000
E 86 132 99.000000
E 86 167 99.000000
E 86 202 98.000000
E 86 312 97.000000
E 86 568 105.000000
E 87 202 100.000000
E 87 254 97.000000
E 88 143 104.000000
E 88 263 98.000000
E 88 389 96.000000
E 88 501 112.000000
E 89 119 94.000000
E 89 335 102.000000
E 89 383 98.000000
E 89 425 103.000000
E 90 397 103.000000
E 90 441 108.000000
E 91 477 97.000000
E 91 496 91.000000
E 91 502 107.000000
E 91 627 105.000000
E 92 181 96.000000
E 92 488 99.000000
E 93 153 96.000000
E 93 438 104.000000
E 94 149 97.000000
E 94 468 97.000000
E 94 567 105.000000
E 95 286 101.000000
E 95 297 93.000000
E 95 317 104.000000
E 96 191 108.000000
E 96 577 95.000000
E 96 622 99.000000
E 97 118 90.000000
E 97 205 106.000000
E 98 304 104.000000
E 98 471 105.000000
E 98 575 102.000000
E 99 133 101.000000
E 99 309 98.000000
E 100 131 104.000000
E 100 141 100.000000
E 100 202 96.000000
E 100 472 102.000000
E 100 624 95.000000
E 101 437 104.000000
E 101 603 92.000000
E 102 285 105.000000
E 102 371 106.000000
E 103 396 98.000000
E 103 415 102.000000
E 103 530 95.000000
E 104 146 89.000000
E 105 263 101.000000
E 106 158 103.000000
E 106 361 98.000000
E 106 380 95.000000
E 107 124 103.000000
E 107 161 106.000000
E 107 170 88.000000
E 107 293 90.000000
E 107 327 108.000000
E 107 375 96.000000
E 108 359 93.000000
E 108 415 94.000000
E 108 458 96.000000
E 108 598 97.000000
E 110 307 101.000000
E 111 131 97.000000
E 111 382 88.000000
E 111 445 100.000000
E 111 497 98.000000
E 111 621 104.000000
E 112 151 96.000000
E 112 267 102.000000
E 112 327 87.000000
E 113 223 100.000000
E 113 524 97.000000
E 113 572 102.000000
E 114 175 91.000000
E 114 376 108.000000
E 114 513 96.000000
E 115 211 106.000000
E 115 245 103.000000
E 115 377 94.000000
E 115 449 101.000000
E 115 480 95.000000
E 116 324 98.000000
E 116 345 107.000000
E 116 559 102.000000
E 116 626 103.000000
E 117 234 97.000000
E 117 235 104.000000
E 117 453 99.000000
E 117 611 101.000000
E 118 202 101.000000
E 118 206 99.000000
E 118 305 92.000000
E 118 381 97.000000
E 118 538 95.000000
E 119 193 101.000000
E 119 399 108.000000
E 119 400 100.000000
E 119 404 96.000000
E 119 478 106.000000
E 119 599 93.000000
E 120 185 93.000000
E 120 429 88.000000
E 120 516 104.000000
E 121 165 94.000000
E 121 267 93.000000
E 121 361 100.000000
E 121 511 101.000000
E 121 512 97.000000
E 121 520 98.000000
E 121 524 100.000000
E 122 513 91.000000
E 122 607 97.000000
E 123 297 91.000000
E 123 602 97.000000
E 124 209 97.000000
E 124 411 98.000000
E 124 514 100.000000
E 124 621 95.000000
E 125 321 96.000000
E 125 488 97.000000
E 125 525 108.000000
E 125 591 99.000000
E 126 281 96.000000
E 126 423 98.000000
E 126 550 104.000000
E 127 167 92.000000
E 127 228 90.000000
E 129 133 100.000000
E 129 145 101.000000
E 129 218 106.000000
E 129 474 102.000000
E 129 535 109.000000
E 129 614 101.000000
E 130 131 96.000000
E 130 174 97.000000
E 130 231 108.000000
E 130 372 102.000000
E 130 626 105.000000
E 131 337 100.000000
E 131 344 96.000000
E 131 488 101.000000
E 131 523 93.000000
E 131 580 105.000000
E 131 637 98.000000
E 132 166 97.000000
E 132 531 103.000000
E 133 504 90.000000
E 134 412 86.000000
E 134 506 98.000000
E 134 569 92.000000
E 135 196 95.000000
E 135 320 102.000000
E 135 486 101.000000
E 135 631 107.000000
E 136 147 97.000000
E 136 513 92.000000
E 136 519 98.000000
E 137 138 98.000000
E 137 237 104.000000
E 137 263 100.000000
E 137 303 90.000000
E 137 448 103.000000
E 137 616 97.000000
E 138 199 99.000000
E 139 201 98.000000
E 139 334 100.000000
E 139 425 100.000000
E 139 558 93.000000
E 140 215 108.000000
E 140 591 103.000000
E 141 152 104.000000
E 141 615 103.000000
E 143 169 98.000000
E 143 202 99.000000
E 143 248 92.000000
E 143 326 105.000000
E 143 335 97.000000
E 143 485 108.000000
E 143 621 100.000000
E 144 153 104.000000
E 144 415 102.000000
E 144 461 97.000000
E 145 158 98.000000
E 145 253 99.000000
E 145 281 98.000000
E 145 343 95.000000
E 146 176 104.000000
E 146 219 96.000000
E 146 415 103.000000
E 147 157 99.000000
E 147 295 98.000000
E 147 406 108.000000
E 148 531 98.000000
E 149 380 96.000000
E 149 501 95.000000
E 149 628 98.000000
E 150 579 106.000000
E 151 255 103.000000
E 151 274 103.000000
E 151 514 97.000000
E 151 543 94.000000
E 151 639 98.000000
E 152 432 103.000000
E 152 491 105.000000
E 152 566 96.000000
E 152 631 105.000000
E 153 436 92.000000
E 153 576 100.000000
E 154 156 96.000000
E 154 462 100.000000
E 154 532 102.000000
E 154 599 93.000000
E 155 222 104.000000
E 155 515 106.000000
E 155 606 108.000000
E 156 232 94.000000
E 156 256 97.000000
E 157 236 107.000000
E 157 554 100.000000
E 157 618 101.000000
E 158 210 102.000000
E 158 516 106.000000
E 158 571 97.000000
E 158 591 105.000000
E 159 191 101.000000
E 159 329 90.000000
E 159 468 109.000000
E 159 547 103.000000
E 160 210 90.000000
E 160 391 90.000000
E 160 538 95.000000
E 161 167 101.000000
E 161 279 98.000000
E 161 370 99.000000
E 162 481 95.000000
E 162 521 98.000000
E 163 277 97.000000
E 163 304 102.000000
E 163 376 98.000000
E 164 433 98.000000
E 164 558 99.000000
E 164 607 96.000000
E 165 436 105.000000
E 166 242 102.000000
E 166 373 98.000000
E 166 393 99.000000
E 166 499 97.000000
E 166 610 103.000000
E 167 208 101.000000
E 167 228 96.000000
E 167 357 98.000000
E 168 301 103.000000
E 168 353 100.000000
E 168 358 98.000000
E 168 387 94.000000
E 169 175 86.000000
E 169 261 97.000000
E 169 626 110.000000
E 170 200 104.000000
E 170 371 108.000000
E 170 622 96.000000
E 171 186 102.000000
E 171 188 97.000000
E 171 415 100.000000
E 172 459 98.000000
E 172 640 96.000000
E 173 287 98.000000
E 173 471 96.000000
E 174 324 102.000000
E 174 350 98.000000
E 175 393 103.000000
E 175 447 104.000000
E 175 502 104.000000
E 175 599 100.000000
E 176 233 101.000000
E 176 306 97.000000
E 176 311 95.000000
E 176 430 95.000000
E 177 224 108.000000
E 177 297 96.000000
E 177 426 94.000000
E 177 494 102.000000
E 177 565 99.000000
E 177 626 88.000000
E 178 617 104.000000
E 179 321 95.000000
E 179 449 99.000000
E 180 339 98.000000
E 180 445 96.000000
E 180 563 94.000000
E 181 584 100.000000
E 182 243 93.000000
E 182 287 105.000000
E 182 297 99.000000
E 182 570 100.000000
E 183 389 108.000000
E 183 443 88.000000
E 183 580 100.000000
E 184 389 101.000000
E 185 423 95.000000
E 185 447 100.000000
E 185 472 105.000000
E 185 633 98.000000
E 186 209 99.000000
E 186 632 96.000000
E 187 272 94.000000
E 187 397 93.000000
E 187 569 103.000000
E 187 618 103.000000
E 187 634 90.000000
E 188 213 91.000000
E 188 376 90.000000
E 189 354 102.000000
E 189 383 99.000000
E 189 503 94.000000
E 190 504 90.000000
E 190 579 100.000000
E 191 430 93.000000
E 192 488 103.000000
E 192 527 107.000000
E 192 554 101.000000
E 192 615 98.000000
E 193 263 90.000000
E 193 574 99.000000
E 193 609 102.000000
E 194 333 92.000000
E 195 371 95.000000
E 195 427 97.000000
E 197 210 102.000000
E 197 295 100.000000
E 197 469 99.000000
E 197 608 97.000000
E 198 537 97.000000
E 198 540 101.000000
E 198 569 110.000000
E 198 632 104.000000
E 199 328 98.000000
E 199 402 101.000000
E 199 416 92.000000
E 199 423 97.000000
E 200 215 94.000000
E 200 276 103.000000
E 200 358 102.000000
E 200 463 111.000000
E 200 494 101.000000
E 200 600 93.000000
E 200 620 96.000000
E 201 208 100.000000
E 201 291 96.000000
E 201 538 99.000000
E 202 238 94.000000
E 202 256 101.000000
E 203 402 98.000000
E 203 459 93.000000
E 204 220 96.000000
E 204 314 104.000000
E 204 504 99.000000
E 204 510 91.000000
E 205 258 96.000000
E 205 287 91.000000
E 205 384 96.000000
E 205 423 95.000000
E 205 484 97.000000
E 205 516 101.000000
E 206 314 97.000000
E 206 378 100.000000
E 206 545 108.000000
E 206 584 93.000000
E 206 639 99.000000
E 207 252 100.000000
E 207 447 101.000000
E 207 491 98.000000
E 209 238 95.000000
E 209 364 98.000000
E 209 423 104.000000
E 210 230 104.000000
E 210 307 97.000000
E 210 444 101.000000
E 211 231 103.000000
E 211 259 95.000000
E 211 296 98.000000
E 211 546 101.000000
E 211 584 101.000000
E 212 298 106.000000
E 212 470 91.000000
E 212 524 94.000000
E 212 541 97.000000
E 213 401 102.000000
E 213 514 105.000000
E 213 548 96.000000
E 214 530 93.000000
E 214 558 96.000000
E 214 580 99.000000
E 214 632 95.000000
E 215 387 103.000000
E 216 524 104.000000
E 217 440 107.000000
E 217 479 92.000000
E 217 535 101.000000
E 217 562 108.000000
E 218 278 103.000000
E 218 370 93.000000
E 219 296 101.000000
E 219 388 106.000000
E 220 442 93.000000
E 221 492 95.000000
E 221 572 102.000000
E 221 578 90.000000
E 221 587 98.000000
E 221 609 97.000000
E 222 287 94.000000
E 222 302 94.000000
E 222 320 98.000000
E 222 368 101.000000
E 222 520 100.000000
E 223 614 98.000000
E 225 273 97.000000
E 225 333 89.000000
E 225 458 100.000000
E 225 596 106.000000
E 226 341 98.000000
E 226 454 96.000000
E 226 514 99.000000
E 227 462 95.000000
E 227 477 99.000000
E 227 487 99.000000
E 227 496 101.000000
E 227 509 103.000000
E 227 564 105.000000
E 227 579 105.000000
E 228 297 92.000000
E 228 592 100.000000
E 229 380 94.000000
E 229 411 86.000000
E 229 596 111.000000
E 230 268 106.000000
E 230 316 100.000000
E 230 324 103.000000
E 231 315 99.000000
E 231 336 98.000000
E 231 407 96.000000
E 231 432 96.000000
E 231 559 92.000000
E 232 269 99.000000
E 232 327 109.000000
E 232 447 91.000000
E 232 483 103.000000
E 233 354 96.000000
E 233 402 99.000000
E 233 508 103.000000
E 233 524 101.000000
E 233 537 94.000000
E 234 358 91.000000
E 234 470 101.000000
E 235 247 90.000000
E 235 286 102.000000
E 235 372 94.000000
E 235 405 99.000000
E 235 578 94.000000
E 236 529 99.000000
E 236 534 94.000000
E 236 609 101.000000
E 237 251 108.000000
E 238 525 106.000000
E 238 584 102.000000
E 239 347 95.000000
E 239 524 97.000000
E 239 527 100.000000
E 240 279 99.000000
E 240 336 96.000000
E 240 600 95.000000
E 241 306 107.000000
E 241 591 96.000000
E 242 283 101.000000
E 242 530 106.000000
E 243 390 92.000000
E 243 425 86.000000
E 244 342 98.000000
E 246 559 96.000000
E 246 589 98.000000
E 247 359 101.000000
E 247 505 92.000000
E 248 291 97.000000
E 248 517 98.000000
E 248 567 95.000000
E 248 587 104.000000
E 248 629 101.000000
E 249 255 107.000000
E 249 331 103.000000
E 249 512 103.000000
E 251 333 91.000000
E 252 286 99.000000
E 253 297 97.000000
E 253 326 107.000000
E 253 549 95.000000
E 253 628 103.000000
E 254 455 102.000000
E 255 434 91.000000
E 255 575 109.000000
E 256 261 100.000000
E 256 326 101.000000
E 256 359 101.000000
E 256 476 98.000000
E 257 526 99.000000
E 258 481 98.000000
E 258 541 100.000000
E 258 578 103.000000
E 258 634 98.000000
E 259 484 103.000000
E 259 612 96.000000
E 260 318 95.000000
E 260 329 111.000000
E 260 349 104.000000
E 260 511 103.000000
E 260 553 89.000000
E 261 300 96.000000
E 261 410 103.000000
E 261 446 101.000000
E 262 272 103.000000
E 262 305 95.000000
E 263 270 101.000000
E 263 321 104.000000
E 263 609 105.000000
E 264 353 101.000000
E 264 435 97.000000
E 265 327 99.000000
E 265 580 93.000000
E 266 283 105.000000
E 266 575 103.000000
E 266 628 102.000000
E 267 296 101.000000
E 267 431 108.000000
E 267 580 100.000000
E 268 277 94.000000
E 268 293 108.000000
E 268 302 98.000000
E 268 313 105.000000
E 268 536 94.000000
E 268 561 100.000000
E 269 452 99.000000
E 269 561 95.000000
E 269 618 98.000000
E 270 360 103.000000
E 270 507 99.000000
E 270 542 94.000000
E 270 561 96.000000
E 271 296 92.000000
E 271 421 103.000000
E 271 551 99.000000
E 271 555 99.000000
E 272 306 94.000000
E 273 468 101.000000
E 273 574 89.000000
E 273 612 110.000000
E 274 445 107.000000
E 274 455 96.000000
E 274 599 106.000000
E 274 609 97.000000
E 275 585 107.000000
E 276 613 99.000000
E 277 424 105.000000
E 277 548 102.000000
E 277 634 110.000000
E 277 637 104.000000
E 278 329 107.000000
E 278 383 100.000000
E 278 412 100.000000
E 278 494 92.000000
E 278 554 99.000000
E 279 389 99.000000
E 279 420 96.000000
E 279 588 103.000000
E 280 312 96.000000
E 280 332 102.000000
E 280 442 99.000000
E 280 491 107.000000
E 281 321 96.000000
E 281 348 107.000000
E 282 319 94.000000
E 282 327 114.000000
E 282 589 94.000000
E 284 361 101.000000
E 284 366 105.000000
E 284 442 96.000000
E 284 531 100.000000
E 284 572 96.000000
E 284 635 96.000000
E 285 304 97.000000
E 285 529 106.000000
E 285 582 95.000000
E 286 556 104.000000
E 286 561 98.000000
E 286 580 98.000000
E 288 360 99.000000
E 288 429 104.000000
E 289 489 99.000000
E 289 631 103.000000
E 290 320 99.000000
E 290 630 105.000000
E 291 352 100.000000
E 291 530 100.000000
E 292 470 102.000000
E 294 399 102.000000
E 294 434 98.000000
E 295 421 93.000000
E 295 545 95.000000
E 296 359 93.000000
E 296 392 97.000000
E 297 307 107.000000
E 298 566 102.000000
E 299 310 101.000000
E 300 355 99.000000
E 300 511 94.000000
E 301 354 89.000000
E 301 433 96.000000
E 302 303 99.000000
E 302 340 96.000000
E 302 598 104.000000
E 302 602 97.000000
E 303 410 97.000000
E 304 382 95.000000
E 304 637 98.000000
E 305 367 103.000000
E 305 422 102.000000
E 306 365 108.000000
E 307 367 97.000000
E 307 418 99.000000
E 307 454 96.000000
E 307 571 99.000000
E 308 530 99.000000
E 308 581 97.000000
E 309 610 92.000000
E 310 446 96.000000
E 310 489 101.000000
E 310 559 91.000000
E 312 407 99.000000
E 313 529 95.000000
E 313 609 97.000000
E 314 485 88.000000
E 314 567 101.000000
E 315 521 100.000000
E 315 613 94.000000
E 317 618 106.000000
E 317 624 94.000000
E 318 505 101.000000
E 320 419 101.000000
E 321 401 100.000000
E 321 406 96.000000
E 321 640 100.000000
E 322 435 100.000000
E 323 402 103.000000
E 325 466 101.000000
E 326 329 92.000000
E 326 354 98.000000
E 326 425 101.000000
E 326 435 96.000000
E 326 451 99.000000
E 326 561 101.000000
E 326 613 106.000000
E 327 435 101.000000
E 327 457 109.000000
E 327 572 102.000000
E 328 449 95.000000
E 328 484 96.000000
E 329 487 100.000000
E 329 617 99.000000
E 329 630 98.000000
E 330 342 107.000000
E 330 491 100.000000
E 331 379 95.000000
E 331 464 102.000000
E 331 475 99.000000
E 332 407 90.000000
E 332 491 106.000000
E 333 460 104.000000
E 334 607 94.000000
E 335 491 103.000000
E 336 564 96.000000
E 337 593 102.000000
E 338 444 106.000000
E 339 374 98.000000
E 339 386 102.000000
E 340 437 105.000000
E 340 450 100.000000
E 340 472 94.000000
E 340 626 89.000000
E 341 529 102.000000
E 341 568 100.000000
E 341 576 106.000000
E 341 640 104.000000
E 342 421 100.000000
E 342 427 99.000000
E 342 562 102.000000
E 343 421 101.000000
E 344 399 94.000000
E 346 365 103.000000
E 346 380 99.000000
E 346 459 102.000000
E 346 581 101.000000
E 347 472 100.000000
E 347 614 99.000000
E 349 370 96.000000
E 349 551 101.000000
E 349 598 98.000000
E 349 628 94.000000
E 350 400 99.000000
E 350 528 103.000000
E 351 471 85.000000
E 351 492 97.000000
E 352 521 96.000000
E 353 354 107.000000
E 354 447 102.000000
E 355 623 97.000000
E 356 523 91.000000
E 356 530 105.000000
E 357 380 97.000000
E 357 420 104.000000
E 358 469 101.000000
E 358 553 107.000000
E 359 370 96.000000
E 360 366 94.000000
E 360 621 101.000000
E 361 486 96.000000
E 361 493 104.000000
E 361 526 109.000000
E 363 433 107.000000
E 364 457 108.000000
E 364 465 96.000000
E 364 558 99.000000
E 365 495 104.000000
E 366 374 98.000000
E 366 398 100.000000
E 366 455 94.000000
E 367 458 95.000000
E 367 481 103.000000
E 368 402 95.000000
E 369 571 102.000000
E 369 597 97.000000
E 370 371 93.000000
E 370 437 104.000000
E 371 413 98.000000
E 372 543 104.000000
E 373 587 102.000000
E 374 634 106.000000
E 375 487 96.000000
E 376 419 101.000000
E 377 400 98.000000
E 377 430 92.000000
E 377 453 104.000000
E 379 566 93.000000
E 379 595 96.000000
E 381 558 104.000000
E 381 634 92.000000
E 382 489 91.000000
E 384 458 94.000000
E 384 465 101.000000
E 385 467 95.000000
E 385 632 100.000000
E 386 395 92.000000
E 387 420 94.000000
E 387 539 97.000000
E 387 593 98.000000
E 388 626 97.000000
E 389 426 100.000000
E 389 639 106.000000
E 390 427 91.000000
E 390 459 98.000000
E 391 603 94.000000
E 392 459 97.000000
E 393 633 96.000000
E 393 634 101.000000
E 394 458 90.000000
E 394 484 107.000000
E 394 501 92.000000
E 394 518 100.000000
E 395 576 105.000000
E 396 444 102.000000
E 396 460 102.000000
E 396 506 90.000000
E 397 480 89.000000
E 398 607 94.000000
E 399 567 102.000000
E 400 557 98.000000
E 401 492 102.000000
E 401 581 104.000000
E 402 434 99.000000
E 403 503 92.000000
E 403 561 106.000000
E 405 414 99.000000
E 406 484 102.000000
E 407 465 104.000000
E 407 508 100.000000
E 407 580 97.000000
E 408 610 98.000000
E 409 430 96.000000
E 409 590 108.000000
E 410 618 100.000000
E 412 519 100.000000
E 413 489 100.000000
E 413 493 101.000000
E 413 523 98.000000
E 414 507 104.000000
E 414 555 103.000000
E 415 520 89.000000
E 416 581 100.000000
E 416 623 98.000000
E 417 594 104.000000
E 417 629 104.000000
E 418 545 96.000000
E 419 615 96.000000
E 426 530 103.000000
E 427 531 93.000000
E 427 613 104.000000
E 428 447 96.000000
E 429 450 100.000000
E 429 491 101.000000
E 429 594 91.000000
E 430 435 93.000000
E 430 506 94.000000
E 431 618 95.000000
E 432 444 102.000000
E 432 455 99.000000
E 432 556 96.000000
E 433 436 98.000000
E 433 552 91.000000
E 433 606 100.000000
E 435 618 93.000000
E 436 620 91.000000
E 437 564 101.000000
E 439 487 104.000000
E 440 454 97.000000
E 440 543 100.000000
E 440 580 96.000000
E 441 578 99.000000
E 442 485 105.000000
E 442 605 98.000000
E 442 612 100.000000
E 443 514 99.000000
E 444 559 101.000000
E 444 628 104.000000
E 446 602 109.000000
E 447 612 103.000000
E 448 499 103.000000
E 448 573 101.000000
E 448 609 100.000000
E 453 532 98.000000
E 455 562 90.000000
E 456 535 106.000000
E 456 595 97.000000
E 456 625 101.000000
E 457 512 102.000000
E 457 556 95.000000
E 457 566 95.000000
E 458 510 93.000000
E 459 464 100.000000
E 459 600 96.000000
E 461 473 97.000000
E 461 550 106.000000
E 462 601 98.000000
E 463 481 102.000000
E 464 569 101.000000
E 464 628 99.000000
E 467 487 94.000000
E 467 589 102.000000
E 468 472 106.000000
E 468 550 101.000000
E 470 476 96.000000
E 470 524 107.000000
E 470 615 94.000000
E 471 591 93.000000
E 471 610 107.000000
E 471 614 95.000000
E 472 594 103.000000
E 475 601 96.000000
E 475 612 93.000000
E 476 503 97.000000
E 476 533 97.000000
E 477 636 108.000000
E 479 481 108.000000
E 479 608 107.000000
E 480 559 103.000000
E 480 596 102.000000
E 481 566 91.000000
E 481 640 105.000000
E 482 574 99.000000
E 484 494 105.000000
E 484 528 106.000000
E 486 563 101.000000
E 487 517 99.000000
E 487 626 97.000000
E 490 513 100.000000
E 490 526 98.000000
E 490 560 96.000000
E 490 585 94.000000
E 491 634 116.000000
E 492 493 92.000000
E 492 534 105.000000
E 494 513 99.000000
E 497 509 96.000000
E 498 523 99.000000
E 499 545 97.000000
E 499 564 104.000000
E 502 581 103.000000
E 503 600 100.000000
E 503 623 108.000000
E 504 600 103.000000
E 505 634 92.000000
E 507 509 96.000000
E 508 596 100.000000
E 508 611 104.000000
E 510 575 100.000000
E 512 619 97.000000
E 513 523 97.000000
E 515 631 99.000000
E 517 569 104.000000
E 517 638 106.000000
E 519 606 106.000000
E 521 537 102.000000
E 522 584 104.000000
E 522 618 102.000000
E 524 526 95.000000
E 524 560 99.000000
E 525 573 102.000000
E 531 640 104.000000
E 538 632 98.000000
E 539 592 95.000000
E 543 580 103.000000
E 544 569 108.000000
E 544 622 113.000000
E 545 610 94.000000
E 545 617 96.000000
E 548 622 91.000000
E 551 595 97.000000
E 557 581 94.000000
E 558 600 99.000000
E 558 601 97.000000
E 558 616 110.000000
E 561 574 103.000000
E 564 598 99.000000
E 567 570 108.000000
E 572 633 102.000000
E 574 609 103.000000
E 576 593 87.000000
E 577 586 100.000000
E 578 597 100.000000
E 580 594 105.000000
E 580 596 97.000000
E 581 607 103.000000
E 582 587 98.000000
E 583 584 97.000000
E 586 604 101.000000
E 589 629 97.000000
E 590 599 104.000000
E 597 625 97.000000
E 600 632 100.000000
E 603 632 105.000000
E 604 618 93.000000
E 611 628 96.000000
E 613 628 91.000000
E 613 631 101.000000
E 613 640 101.000000
E 619 637 93.000000
E 626 637 94.000000
END

SECTION Terminals
Terminals 25
TP 1 556.000000
TP 2 1136.000000
TP 3 520.000000
TP 4 92.000000
TP 5 856.000000
TP 6 512.000000
TP 7 900.000000
TP 8 724.000000
TP 9 416.000000
TP 10 756.000000
TP 11 756.000000
TP 12 824.000000
TP 13 584.000000
TP 14 1164.000000
TP 15 676.000000
TP 16 524.000000
TP 17 204.000000
TP 18 848.000000
TP 19 648.000000
TP 20 664.000000
TP 21 252.000000
TP 22 464.000000
TP 23 960.000000
TP 24 848.000000
TP 25 1072.000000
END

EOF
